<?xml version = "1.0" encoding="UTF-8" standalone="yes"?>
<CPLEXSolution version="1.2">
 <header
   problemName="mknap01_5_cut_n1"
   objectiveValue="11228"
   solutionTypeValue="1"
   solutionTypeString="basic"
   solutionStatusValue="1"
   solutionStatusString="optimal"
   solutionMethodString="dual"
   primalFeasible="1"
   dualFeasible="1"
   simplexIterations="3"
   writeLevel="1"/>
 <quality
   epRHS="9.9999999999999995e-07"
   epOpt="9.9999999999999995e-07"
   maxPrimalInfeas="0"
   maxDualInfeas="0"
   maxPrimalResidual="0"
   maxDualResidual="0"
   maxX="1"
   maxPi="3880"
   maxSlack="107.39999999999999"
   maxRedCost="3005"
   kappa="12.40681874520828"/>
 <linearConstraints>
  <constraint name="c0" index="0" status="BS" slack="24.399999999999984" dual="-0"/>
  <constraint name="c1" index="1" status="LL" slack="0" dual="4"/>
  <constraint name="c2" index="2" status="BS" slack="91.599999999999994" dual="-0"/>
  <constraint name="c3" index="3" status="BS" slack="83.199999999999989" dual="-0"/>
  <constraint name="c4" index="4" status="BS" slack="91" dual="-0"/>
  <constraint name="c5" index="5" status="BS" slack="107.39999999999999" dual="-0"/>
  <constraint name="c6" index="6" status="BS" slack="93.799999999999997" dual="-0"/>
  <constraint name="c7" index="7" status="BS" slack="86.599999999999994" dual="-0"/>
  <constraint name="c8" index="8" status="BS" slack="48.399999999999991" dual="-0"/>
  <constraint name="c9" index="9" status="BS" slack="30.799999999999994" dual="-0"/>
  <constraint name="cut_1" index="10" status="LL" slack="0" dual="3880"/>
 </linearConstraints>
 <variables>
  <variable name="x0" index="0" status="UL" value="1" reducedCost="68"/>
  <variable name="x1" index="1" status="UL" value="1" reducedCost="44"/>
  <variable name="x2" index="2" status="LL" value="0" reducedCost="-932"/>
  <variable name="x3" index="3" status="BS" value="0.7200000000000002" reducedCost="0"/>
  <variable name="x4" index="4" status="LL" value="0" reducedCost="-100"/>
  <variable name="x5" index="5" status="LL" value="0" reducedCost="-1900"/>
  <variable name="x6" index="6" status="LL" value="0" reducedCost="-3005"/>
  <variable name="x7" index="7" status="LL" value="0" reducedCost="-950"/>
  <variable name="x8" index="8" status="UL" value="1" reducedCost="48"/>
  <variable name="x9" index="9" status="UL" value="1" reducedCost="100"/>
  <variable name="x10" index="10" status="LL" value="0" reducedCost="-2060"/>
  <variable name="x11" index="11" status="UL" value="1" reducedCost="12"/>
  <variable name="x12" index="12" status="LL" value="0" reducedCost="-60"/>
  <variable name="x13" index="13" status="UL" value="1" reducedCost="660"/>
  <variable name="x14" index="14" status="UL" value="1" reducedCost="490"/>
  <variable name="x15" index="15" status="UL" value="1" reducedCost="80"/>
  <variable name="x16" index="16" status="LL" value="0" reducedCost="-2650"/>
  <variable name="x17" index="17" status="LL" value="0" reducedCost="-1900"/>
  <variable name="x18" index="18" status="LL" value="0" reducedCost="-1904"/>
  <variable name="x19" index="19" status="UL" value="1" reducedCost="1590"/>
  <variable name="x20" index="20" status="BS" value="1" reducedCost="0"/>
  <variable name="x21" index="21" status="UL" value="1" reducedCost="780"/>
  <variable name="x22" index="22" status="LL" value="0" reducedCost="-1350"/>
  <variable name="x23" index="23" status="LL" value="0" reducedCost="-1770"/>
  <variable name="x24" index="24" status="LL" value="0" reducedCost="-2718"/>
  <variable name="x25" index="25" status="LL" value="0" reducedCost="-818"/>
  <variable name="x26" index="26" status="UL" value="1" reducedCost="168"/>
  <variable name="x27" index="27" status="UL" value="1" reducedCost="408"/>
 </variables>
 <objectiveValues>
  <objective index="0" name="" value="11228"/>
 </objectiveValues>
</CPLEXSolution>
